73 194 100 189 120 45 145 124 108 133 68 157 183 106 156 193 79 75 126 160 134 71 56 30 77 98 44 165 32 67 13 186 64 173 159 85 95 188 142 63 149 58 84 17 5 39 82 2 176 115 101 8 9 141 19 24 113 163 81 182 103 105 132 114 11 27 46 181 20 55 150 94 147 130 162 25 86 112 54 177 144 135 116 91 140 47 1 143 29 99 118 50 191 18 195 36 34 61 117 4 123 52 59 43 92 121 122 187 70 3 154 42 76 15 151 62 153 53 90 38 72 14 171 136 83 40 164 146 78 180 12 178 87 23 26 179 119 137 51 7 65 37 185 148 33 80 129 174 49 168 125 0 155 199 161 93 31 104 96 166 139 16 89 138 97 169 48 69 152 88 10 167 109 22 41 172 184 21 192 110 102 57 127 28 190 196 175 198 107 128 35 158 74 66 131 197 6 170 60 111